 200 92 
 49 21 24 39 78 15 36 36 82 12 57 82 
 48 85 75 49 79 2 67 31 34 99 18 99 
 89 47 91 73 15 80 17 37 90 22 53 54 
 10 73 81 70 1 53 51 49 94 100 28 72 
 16 50 91 32 39 34 49 65 61 69 45 35 
 78 4 59 94 22 91 18 69 78 84 80 41 
 26 58 67 35 44 81 10 35 79 6 14 15 
 99 25 60 31 56 11 78 37 
 20 
 1 2 7 9 11 22 26 31 32 38 40 45 
 49 51 54 60 64 73 75 84 
 68 
 1 2 3 4 6 9 10 11 14 16 18 21 
 24 25 26 27 28 29 31 32 33 34 35 36 
 37 38 39 40 41 42 43 44 45 50 51 52 
 53 54 55 56 57 58 59 63 64 65 66 67 
 68 69 70 71 72 73 74 75 76 77 78 80 
 81 83 85 86 87 88 90 91 
 33 
 5 7 8 11 13 15 19 21 22 23 24 30 
 32 34 35 40 43 44 45 47 50 53 57 58 
 62 68 69 75 78 80 81 84 89 
 16 
 8 14 18 20 23 27 30 40 43 50 60 74 
 75 83 84 87 
 8 
 11 16 23 27 53 54 55 66 
 56 
 1 2 3 4 5 7 8 10 11 15 17 18 
 21 22 24 25 27 28 29 30 32 33 34 38 
 39 41 42 43 44 45 46 48 49 52 54 55 
 56 57 58 60 61 62 63 69 74 75 77 82 
 84 85 86 87 89 90 91 92 
 26 
 16 20 21 23 25 26 30 31 33 36 39 40 
 42 48 49 50 51 55 56 60 61 67 70 74 
 82 90 
 75 
 1 2 3 4 5 6 7 8 9 10 11 12 
 14 15 16 17 18 21 22 23 24 26 27 28 
 29 30 33 34 35 36 37 38 40 41 42 43 
 44 45 46 47 48 49 51 52 53 55 56 57 
 59 60 61 62 63 66 68 69 70 71 72 74 
 75 76 77 78 79 80 81 82 84 86 88 89 
 90 91 92 
 17 
 1 2 3 6 14 16 18 23 31 35 36 46 
 47 52 80 83 84 
 32 
 4 5 9 10 14 16 18 20 21 22 23 25 
 26 31 34 35 36 48 53 56 57 59 66 70 
 71 78 79 81 82 84 86 88 
 21 
 6 8 15 18 19 24 29 44 47 48 50 55 
 56 63 71 74 75 77 84 89 92 
 80 
 1 2 3 4 5 6 8 9 11 12 13 14 
 15 16 18 20 21 22 23 24 25 26 27 28 
 29 30 32 33 34 35 36 37 38 39 40 41 
 43 44 45 46 47 48 49 50 51 52 54 55 
 56 57 58 59 60 61 63 64 66 67 68 69 
 70 71 72 73 74 75 76 77 79 80 81 82 
 83 85 87 88 89 90 91 92 
 76 
 1 2 3 4 5 6 7 8 10 11 12 13 
 14 15 16 17 18 19 21 22 23 24 25 26 
 29 30 31 33 34 36 37 38 39 40 41 43 
 44 46 47 48 49 50 51 52 55 56 57 58 
 59 60 61 62 63 64 65 66 67 68 70 73 
 74 75 76 77 78 79 80 82 83 84 85 86 
 87 88 90 92 
 27 
 1 3 8 12 13 15 20 28 31 33 37 38 
 39 40 41 44 45 47 49 52 61 65 67 71 
 77 78 82 
 23 
 8 13 14 25 26 33 34 35 42 43 49 50 
 55 58 60 61 64 69 74 86 88 89 90 
 40 
 1 2 10 12 13 14 15 17 18 19 20 26 
 30 37 40 49 50 51 52 53 54 55 57 58 
 59 60 61 64 70 72 73 75 76 77 79 82 
 84 86 88 91 
 12 
 1 4 21 28 31 33 54 55 56 59 84 91 
 78 
 1 2 4 6 7 8 9 11 12 13 14 15 
 16 18 19 20 21 22 23 24 25 26 27 28 
 29 30 31 32 33 34 35 36 39 40 41 43 
 44 45 46 47 48 50 51 52 53 54 55 57 
 58 60 61 62 63 64 66 67 68 69 70 71 
 73 74 75 76 77 78 79 80 81 82 83 84 
 85 86 87 89 91 92 
 21 
 1 11 12 13 21 32 37 39 40 41 42 46 
 52 54 69 75 81 82 83 84 89 
 70 
 1 2 3 5 6 7 9 10 11 12 13 14 
 15 16 17 18 19 20 21 22 23 24 25 26 
 27 28 29 30 31 32 33 35 37 38 40 41 
 42 45 46 47 48 49 50 51 53 55 56 58 
 60 61 62 64 66 67 69 70 74 75 76 77 
 78 80 81 84 86 87 89 90 91 92 
 86 
 1 2 3 4 5 6 7 8 9 10 11 12 
 13 14 15 16 17 18 19 20 21 22 23 24 
 25 26 27 28 29 30 31 32 33 34 35 36 
 37 38 39 40 41 42 43 44 45 46 48 49 
 50 51 52 53 55 56 57 58 59 60 61 62 
 63 64 65 66 67 68 70 71 72 73 75 76 
 77 78 80 81 82 83 84 85 86 87 88 89 
 91 92 
 30 
 5 10 11 12 13 16 18 24 27 28 34 37 
 40 42 44 47 52 56 60 64 65 67 68 69 
 72 74 79 80 83 89 
 75 
 1 2 3 4 5 6 8 9 10 11 12 13 
 15 16 17 18 19 20 22 23 24 25 26 27 
 28 30 31 33 34 35 36 37 38 40 41 42 
 43 44 45 46 47 48 49 50 51 53 54 55 
 56 59 60 61 64 65 66 67 68 70 71 72 
 73 75 76 77 78 80 82 83 85 86 87 89 
 90 91 92 
 8 
 4 25 32 33 35 47 70 76 
 7 
 6 12 22 27 49 65 86 
 34 
 2 3 5 6 7 11 16 21 22 24 25 27 
 30 31 33 34 39 42 43 47 48 49 54 58 
 61 65 66 67 68 69 72 75 84 85 
 86 
 1 2 3 4 5 6 7 9 10 11 12 13 
 14 15 16 17 18 19 20 21 22 23 24 25 
 26 27 28 29 30 31 32 33 34 35 36 37 
 38 39 40 41 42 43 44 45 46 47 48 49 
 50 51 53 54 55 56 57 58 59 60 61 62 
 63 64 65 66 67 69 70 71 72 74 75 76 
 77 78 79 80 81 84 85 86 87 88 89 90 
 91 92 
 14 
 4 6 12 14 16 19 26 30 33 55 58 61 
 67 88 
 55 
 1 3 5 6 7 9 12 13 14 15 17 18 
 21 22 23 24 25 28 29 30 31 33 34 36 
 37 38 39 41 43 44 46 52 53 55 56 57 
 58 59 64 66 68 69 71 72 75 76 77 78 
 79 82 84 87 90 91 92 
 44 
 5 6 8 10 11 12 13 20 23 24 25 30 
 31 32 35 36 38 41 42 43 45 46 47 48 
 49 52 53 54 57 61 62 64 66 67 69 78 
 83 84 86 87 88 90 91 92 
 43 
 1 3 7 8 9 13 16 17 18 19 20 27 
 29 33 35 36 37 41 42 43 44 46 48 49 
 51 53 57 58 61 62 64 65 66 69 73 77 
 79 82 86 88 89 91 92 
 22 
 11 13 22 27 30 31 32 33 38 41 43 49 
 50 51 61 66 72 75 77 78 86 89 
 88 
 1 2 3 4 5 6 7 8 9 10 11 12 
 13 14 15 16 17 18 19 20 21 22 23 24 
 25 26 27 28 29 30 32 33 34 35 36 37 
 38 39 40 41 42 43 44 45 47 48 49 50 
 51 52 53 54 55 56 58 59 60 61 62 63 
 64 65 66 67 68 69 70 71 72 73 74 75 
 76 77 78 79 80 81 82 83 84 85 86 87 
 89 90 91 92 
 80 
 1 2 3 4 5 6 7 8 9 10 12 13 
 14 15 16 17 18 19 21 22 23 25 26 27 
 28 30 31 32 33 34 35 36 37 38 39 40 
 41 43 44 45 46 47 48 49 51 52 53 54 
 55 56 57 58 61 63 64 65 66 67 68 70 
 71 72 73 74 75 76 77 78 79 80 81 82 
 84 85 86 87 88 89 90 92 
 34 
 3 4 7 8 15 20 21 23 28 31 32 35 
 37 38 40 43 44 46 50 54 58 60 62 63 
 64 67 71 72 75 82 84 85 88 91 
 78 
 1 2 3 4 5 6 7 9 10 11 12 13 
 14 15 16 20 22 23 24 26 27 28 29 33 
 34 35 36 37 38 39 40 41 42 43 44 45 
 46 47 48 49 50 51 52 54 55 57 59 60 
 61 63 64 65 66 67 68 69 70 71 72 73 
 74 75 76 77 78 79 80 81 83 84 85 86 
 87 88 89 90 91 92 
 15 
 5 7 8 14 15 19 27 36 41 45 55 68 
 70 88 92 
 22 
 6 9 33 36 40 43 46 47 49 60 62 65 
 66 67 68 69 73 76 81 84 86 87 
 88 
 1 2 3 4 5 6 7 8 9 11 12 13 
 14 15 16 17 18 19 20 21 22 23 24 25 
 26 27 28 29 30 31 32 33 34 35 36 37 
 38 39 40 41 42 43 45 46 47 48 50 51 
 52 53 55 56 57 58 59 60 61 62 63 64 
 65 66 67 68 69 70 71 72 73 74 75 76 
 77 78 79 80 81 82 83 84 85 86 87 88 
 89 90 91 92 
 10 
 12 16 23 31 42 65 70 75 79 88 
 63 
 1 2 3 4 7 8 10 12 13 14 15 16 
 17 18 21 23 25 26 28 29 31 32 33 35 
 38 40 42 43 44 45 46 48 49 52 54 56 
 57 59 60 62 63 64 65 66 67 69 70 71 
 74 76 77 78 79 80 82 83 84 85 87 88 
 90 91 92 
 89 
 1 2 3 4 5 6 7 8 9 10 11 12 
 13 14 15 17 18 19 20 21 22 23 24 25 
 26 27 28 29 30 31 32 33 34 35 36 37 
 38 39 40 41 42 43 44 45 46 47 48 49 
 50 51 52 53 54 55 56 57 58 59 60 61 
 62 63 64 65 66 67 68 70 71 72 73 74 
 75 76 77 78 79 80 81 82 83 85 86 87 
 88 89 90 91 92 
 83 
 1 2 3 4 5 6 7 8 9 14 15 16 
 17 18 19 20 21 22 23 24 25 27 29 30 
 31 32 33 34 35 36 37 38 39 40 41 42 
 43 44 45 46 47 48 49 50 51 52 54 55 
 56 57 58 59 60 61 62 63 64 66 67 68 
 69 70 71 72 73 74 75 76 77 78 79 80 
 81 83 84 85 86 87 88 89 90 91 92 
 68 
 1 2 3 4 5 6 7 8 9 10 13 16 
 17 18 19 20 21 22 23 24 25 27 29 30 
 31 32 33 34 35 39 40 41 42 43 44 46 
 47 49 51 52 53 54 55 56 57 58 59 60 
 62 65 66 67 68 70 71 72 73 74 75 76 
 77 78 79 80 81 82 83 92 
 92 
 1 2 3 4 5 6 7 8 9 10 11 12 
 13 14 15 16 17 18 19 20 21 22 23 24 
 25 26 27 28 29 30 31 32 33 34 35 36 
 37 38 39 40 41 42 43 44 45 46 47 48 
 49 50 51 52 53 54 55 56 57 58 59 60 
 61 62 63 64 65 66 67 68 69 70 71 72 
 73 74 75 76 77 78 79 80 81 82 83 84 
 85 86 87 88 89 90 91 92 
 60 
 1 2 3 4 5 7 8 9 10 12 13 15 
 16 18 19 21 23 25 27 28 29 31 33 34 
 37 39 40 43 44 45 47 48 49 51 53 55 
 57 58 59 61 62 63 64 65 68 69 72 73 
 74 76 77 79 80 81 83 84 85 87 89 92 
 53 
 4 5 6 7 8 9 10 13 14 15 16 18 
 20 21 22 24 25 27 29 31 32 36 37 38 
 40 41 42 45 49 50 51 53 54 55 57 58 
 59 60 62 63 64 66 67 68 69 73 74 75 
 77 80 81 86 87 
 25 
 4 8 9 10 11 12 15 18 27 30 33 34 
 41 45 52 53 54 59 60 68 72 79 81 86 
 89 
 67 
 3 4 6 7 9 10 11 12 13 14 15 17 
 18 20 22 23 24 25 28 29 31 32 33 34 
 35 37 38 42 43 44 45 48 49 50 51 52 
 53 54 58 60 61 62 63 64 65 66 67 68 
 69 70 71 72 74 75 78 79 80 81 82 83 
 84 85 87 88 89 91 92 
 28 
 2 3 4 7 10 11 14 19 23 30 33 36 
 39 44 47 49 61 67 68 69 75 76 78 82 
 83 85 86 88 
 36 
 1 4 5 7 9 14 15 16 18 19 24 27 
 29 32 38 45 50 51 54 55 58 59 61 63 
 64 70 72 74 81 82 84 85 88 90 91 92 
 45 
 1 3 6 7 8 13 14 21 24 26 28 29 
 32 33 35 36 38 42 43 44 45 46 47 48 
 50 51 53 54 55 56 57 58 62 65 66 69 
 74 75 76 78 84 85 86 87 88 
 41 
 2 4 7 8 11 12 16 17 19 20 22 26 
 27 28 34 35 39 40 44 45 50 54 55 56 
 57 58 61 64 65 68 69 70 72 76 83 87 
 88 89 90 91 92 
 5 
 9 15 51 64 80 
 26 
 4 8 12 16 18 19 20 27 30 33 34 39 
 42 48 50 51 53 56 57 58 59 74 77 79 
 82 83 
 82 
 1 2 4 7 8 9 10 11 12 13 14 16 
 17 18 19 20 21 22 23 24 25 26 27 28 
 29 30 31 32 33 34 35 36 37 38 39 40 
 41 43 44 45 46 48 49 50 51 52 53 54 
 56 58 59 60 61 62 63 64 65 67 68 69 
 70 71 72 73 74 75 76 78 79 80 81 82 
 83 84 85 86 87 88 89 90 91 92 
 78 
 1 2 3 4 5 6 7 8 9 11 12 13 
 14 15 16 20 21 22 23 24 25 26 27 28 
 29 30 32 33 35 36 37 38 39 40 41 43 
 45 47 48 49 50 51 52 53 54 55 56 57 
 58 60 61 62 63 64 65 66 67 68 69 70 
 71 72 73 74 75 77 78 79 80 82 83 84 
 86 88 89 90 91 92 
 53 
 1 2 3 4 6 9 11 12 14 17 18 21 
 22 27 28 32 34 35 37 38 41 43 44 45 
 46 47 49 52 53 55 58 59 61 63 65 67 
 69 71 73 74 75 76 77 78 80 81 82 84 
 85 86 87 88 90 
 52 
 2 4 5 7 8 11 12 13 15 19 20 26 
 27 30 31 32 33 36 37 38 39 41 44 45 
 47 50 51 52 54 56 58 59 62 65 68 69 
 70 73 74 75 76 78 80 81 82 83 86 87 
 88 89 90 92 
 65 
 3 5 6 8 9 12 13 14 15 18 19 20 
 21 22 23 24 25 26 27 28 29 32 34 36 
 37 38 39 40 41 42 43 44 45 46 47 48 
 51 52 54 56 57 58 59 64 65 66 67 68 
 69 70 71 72 74 76 78 79 80 81 83 84 
 85 87 88 89 91 
 90 
 1 2 3 4 5 6 7 8 9 10 11 12 
 13 14 15 16 17 18 19 20 21 22 23 24 
 25 26 27 28 29 30 31 32 33 34 35 36 
 37 38 39 40 41 42 43 44 45 46 47 49 
 50 51 52 53 55 56 57 58 59 60 61 62 
 63 64 65 66 67 68 69 70 71 72 73 74 
 75 76 77 78 79 80 81 82 83 84 85 86 
 87 88 89 90 91 92 
 16 
 1 14 19 26 28 34 39 42 63 67 70 74 
 79 81 83 89 
 78 
 1 2 3 4 5 6 7 8 9 10 13 14 
 15 16 17 19 21 22 23 24 25 26 27 28 
 29 30 31 33 34 35 36 37 38 39 40 41 
 42 45 46 47 48 50 51 52 53 54 55 57 
 58 59 60 61 62 63 64 65 66 67 68 69 
 70 71 73 75 76 77 79 80 81 82 83 84 
 85 86 88 89 91 92 
 3 
 25 39 73 
 8 
 12 18 46 63 67 78 86 87 
 57 
 1 3 4 5 6 7 8 9 10 11 12 14 
 16 17 19 20 21 22 24 26 28 30 31 33 
 34 35 36 37 40 41 42 44 46 47 48 49 
 51 52 57 60 62 64 65 66 68 70 71 72 
 73 75 76 77 80 82 83 86 92 
 5 
 35 63 64 71 91 
 80 
 1 2 3 4 5 6 8 9 10 11 12 13 
 14 15 17 18 20 21 22 24 25 26 27 28 
 29 30 32 33 35 36 37 38 39 42 43 44 
 45 46 47 48 49 50 51 52 53 54 55 56 
 57 58 59 60 61 64 65 66 67 69 70 71 
 72 74 75 76 77 78 79 80 81 82 83 84 
 85 86 87 88 89 90 91 92 
 40 
 2 10 13 14 16 17 18 22 24 26 28 31 
 33 34 35 36 39 41 45 46 47 49 50 52 
 57 59 65 66 68 69 71 73 76 77 80 86 
 88 89 90 92 
 34 
 3 7 9 10 14 15 21 29 31 32 34 36 
 38 39 40 43 44 45 49 60 61 62 65 66 
 70 72 76 77 81 82 83 88 91 92 
 25 
 1 11 14 17 19 22 24 26 36 39 43 47 
 51 56 58 66 68 73 76 82 83 85 86 88 
 90 
 14 
 1 4 34 41 48 53 54 57 61 63 67 77 
 82 88 
 58 
 1 3 4 5 7 9 10 11 12 13 14 17 
 18 19 20 21 22 25 26 28 29 30 33 34 
 35 36 37 38 40 41 42 44 45 47 48 50 
 51 52 53 56 57 58 59 60 62 63 64 65 
 68 70 74 75 78 79 83 87 89 91 
 13 
 6 21 23 32 40 44 48 49 56 58 68 76 
 87 
 82 
 2 3 4 5 6 7 8 9 10 11 12 13 
 14 15 16 17 18 19 20 23 24 25 26 27 
 28 29 30 32 33 34 35 36 37 38 39 40 
 41 42 44 45 46 48 49 50 51 52 53 54 
 55 56 58 59 60 61 62 63 64 65 66 67 
 68 69 70 71 72 73 74 76 77 78 79 80 
 81 82 83 84 86 87 88 89 91 92 
 50 
 1 4 5 6 7 8 9 10 11 12 14 17 
 18 22 23 24 29 30 31 32 33 37 39 40 
 41 47 49 53 55 57 59 60 63 64 65 67 
 69 71 72 73 74 75 79 80 83 85 86 88 
 90 91 
 20 
 1 7 11 17 24 25 26 32 39 43 62 63 
 64 69 70 80 81 82 83 84 
 58 
 3 4 5 7 9 10 11 12 14 15 16 17 
 21 22 23 24 26 27 28 29 30 31 34 35 
 36 38 40 41 44 45 46 47 49 51 52 53 
 54 55 56 58 61 62 64 65 67 71 73 74 
 76 77 79 81 85 86 87 89 90 91 
 32 
 1 3 4 6 14 18 25 27 35 38 41 44 
 46 51 56 59 60 62 63 65 66 67 68 70 
 74 80 81 82 84 85 86 90 
 24 
 2 3 14 17 18 20 25 26 28 43 44 47 
 49 52 53 54 55 59 60 68 82 87 88 92 
 26 
 2 7 11 12 13 14 15 18 19 24 26 27 
 28 38 52 56 61 62 66 71 75 77 79 84 
 86 92 
 51 
 1 2 3 4 6 7 8 9 10 11 12 13 
 14 16 20 22 24 25 31 34 35 36 38 39 
 40 42 43 46 47 48 52 54 55 61 62 63 
 64 65 66 67 68 69 71 72 76 84 86 89 
 90 91 92 
 27 
 8 10 11 19 20 23 33 36 41 42 44 46 
 48 50 53 55 64 65 66 67 70 73 79 80 
 82 85 92 
 40 
 2 3 6 8 9 12 13 17 19 22 25 26 
 28 29 30 38 39 40 44 46 47 49 53 55 
 58 59 62 63 66 68 70 71 72 75 77 81 
 82 85 88 92 
 40 
 3 10 16 17 18 20 21 23 25 26 27 29 
 35 38 39 41 42 43 44 47 51 52 55 56 
 57 64 65 66 70 76 77 78 81 82 84 85 
 86 89 90 92 
 47 
 1 3 4 5 9 12 14 15 16 18 20 22 
 23 26 27 31 33 35 37 39 40 41 42 44 
 45 49 50 52 55 56 57 58 61 62 64 65 
 68 71 72 73 75 79 80 83 87 91 92 
 18 
 2 3 7 10 12 18 22 30 36 46 50 53 
 55 63 70 74 76 78 
 71 
 1 2 3 4 5 7 8 9 10 11 12 13 
 14 15 16 17 19 20 21 22 23 24 25 26 
 27 28 29 30 31 32 33 34 35 37 38 41 
 42 44 45 46 48 49 50 51 53 54 55 56 
 57 60 62 64 65 69 70 72 75 76 77 78 
 79 80 81 82 83 84 86 87 88 91 92 
 8 
 5 10 22 23 46 50 78 87 
 12 
 8 23 26 31 54 60 61 64 74 76 80 84 
 45 
 1 2 3 6 8 13 14 15 19 20 22 23 
 24 26 32 33 37 40 42 47 50 55 57 58 
 59 61 62 63 66 67 68 71 72 74 75 76 
 79 80 81 83 85 87 89 90 91 
 65 
 2 5 6 7 9 10 12 14 16 17 18 19 
 20 21 23 24 26 28 29 31 33 34 36 37 
 38 39 40 43 44 47 48 50 51 52 54 56 
 59 61 62 63 64 65 66 67 68 69 70 71 
 72 73 76 77 78 79 80 82 83 84 85 86 
 87 89 90 91 92 
 58 
 1 2 3 4 6 7 9 11 13 14 15 16 
 17 18 19 20 22 25 27 30 31 33 34 35 
 36 37 40 41 42 45 51 53 54 55 56 58 
 62 63 66 67 69 70 71 72 74 77 78 79 
 80 82 83 84 85 86 87 89 90 91 
 72 
 1 2 3 4 5 6 8 9 10 11 12 13 
 14 15 16 17 19 21 22 24 25 26 27 28 
 29 30 31 32 34 35 36 37 38 39 40 41 
 42 43 44 45 46 48 49 50 51 52 54 55 
 56 57 58 60 61 62 64 66 69 70 71 73 
 75 78 79 80 81 82 83 84 85 86 89 91 
 24 
 2 3 4 7 21 27 29 36 42 45 48 57 
 58 61 62 64 69 71 74 77 83 85 90 91 
 33 
 1 2 5 11 12 16 18 19 21 26 30 33 
 35 36 38 39 42 45 46 53 57 59 60 63 
 69 74 76 78 81 85 86 87 89 
 73 
 1 2 3 4 5 6 8 10 12 13 15 16 
 18 21 23 25 26 27 28 29 30 31 33 34 
 36 37 38 39 40 41 42 43 44 45 47 48 
 49 50 51 52 53 54 55 56 57 58 60 61 
 62 63 65 66 67 68 69 70 71 72 76 77 
 78 79 80 81 82 83 84 85 86 89 90 91 
 92 
 76 
 1 2 4 5 6 7 8 9 10 11 12 14 
 15 17 18 19 20 21 23 25 26 27 28 30 
 31 32 33 35 37 38 39 40 41 42 43 46 
 47 48 51 52 53 54 55 56 57 58 59 60 
 61 62 63 64 65 66 68 70 71 72 73 74 
 75 76 77 79 80 81 82 83 84 85 86 87 
 88 90 91 92 
 62 
 1 2 3 5 7 8 11 12 13 14 15 18 
 19 20 22 24 25 26 27 29 30 31 34 35 
 36 38 39 40 41 42 43 44 46 47 48 49 
 50 52 53 54 56 57 59 60 62 65 69 70 
 71 72 73 76 77 79 80 83 84 86 88 89 
 90 92 
 26 
 3 5 7 8 9 11 17 19 22 30 33 34 
 38 39 46 48 53 55 59 61 71 74 75 77 
 83 85 
 87 
 1 2 3 4 5 6 7 8 9 10 11 13 
 14 15 16 17 18 19 20 21 22 23 24 25 
 26 27 28 29 30 31 32 33 34 35 36 37 
 38 39 40 41 42 43 44 46 47 49 50 51 
 52 53 54 55 56 57 58 60 61 62 63 64 
 65 66 68 69 70 71 72 73 74 75 76 77 
 78 79 80 81 82 83 84 85 86 87 88 89 
 90 91 92 
 79 
 1 2 3 4 5 6 7 8 9 11 12 13 
 15 16 17 18 19 20 21 22 23 24 25 26 
 27 30 31 32 33 34 35 36 37 38 39 40 
 42 43 44 45 46 47 48 49 50 51 53 54 
 55 56 57 58 59 60 61 62 63 64 65 66 
 68 69 70 71 74 75 76 77 79 80 82 83 
 84 85 86 87 88 89 90 
 47 
 1 4 7 8 10 11 12 13 14 15 19 20 
 21 28 29 32 33 35 38 41 42 45 46 47 
 48 49 50 51 52 53 54 56 59 60 62 64 
 69 71 73 75 76 77 80 81 84 90 91 
 8 
 7 31 38 41 46 59 61 69 
 77 
 1 2 3 4 5 8 10 11 13 14 15 16 
 17 18 19 20 21 22 23 24 26 27 28 29 
 30 31 32 33 34 36 37 38 39 40 41 42 
 43 44 46 48 49 50 51 52 53 54 55 56 
 57 58 60 61 63 65 66 67 68 69 70 71 
 72 74 75 76 77 79 80 81 82 83 84 85 
 86 88 90 91 92 
 40 
 2 3 4 5 7 11 14 18 20 21 22 23 
 24 30 31 32 37 42 43 44 45 48 54 55 
 56 57 58 60 61 62 65 66 67 71 75 80 
 89 90 91 92 
 16 
 2 5 12 19 33 40 42 52 54 61 67 69 
 71 74 81 92 
 54 
 1 3 4 5 6 8 9 12 13 14 16 17 
 18 20 23 27 28 30 31 32 36 40 41 44 
 45 46 47 48 49 50 51 52 54 56 58 59 
 62 63 65 68 72 74 76 77 78 79 80 84 
 85 86 87 88 91 92 
 20 
 1 2 8 10 12 15 23 24 25 29 38 40 
 44 45 51 54 57 58 70 91 
 23 
 4 15 21 23 26 27 30 31 33 36 37 41 
 43 50 52 54 61 70 72 77 83 85 91 
 54 
 1 2 3 6 8 9 10 13 14 15 16 19 
 22 23 24 26 27 28 29 30 31 32 33 34 
 36 39 45 46 48 49 51 54 55 56 57 58 
 59 61 63 66 67 69 72 74 76 77 78 79 
 82 83 86 88 89 91 
 47 
 2 3 6 8 9 10 12 13 15 16 19 20 
 24 26 27 29 30 35 40 42 43 44 46 48 
 49 52 56 58 59 60 61 63 65 67 69 70 
 72 76 78 80 81 82 84 88 89 90 91 
 54 
 2 3 6 7 8 9 11 12 13 14 15 17 
 20 21 22 24 27 30 32 34 38 40 42 43 
 47 48 49 50 52 53 54 55 57 58 59 60 
 61 63 64 65 66 73 74 76 79 80 81 82 
 84 87 88 90 91 92 
 78 
 1 2 3 4 6 7 8 10 11 12 14 15 
 16 17 18 19 20 22 23 25 26 27 28 29 
 31 32 33 34 35 36 37 38 39 40 41 42 
 43 45 47 48 49 50 51 52 53 56 57 60 
 61 62 64 65 66 67 68 69 70 71 73 74 
 75 76 77 78 79 80 81 82 83 84 85 86 
 87 88 89 90 91 92 
 28 
 3 7 10 11 13 16 17 23 26 32 35 39 
 45 46 48 52 54 55 56 60 69 70 72 78 
 79 82 89 92 
 77 
 1 2 3 4 5 6 7 8 9 10 12 13 
 14 15 17 18 20 21 22 23 24 25 26 29 
 30 31 32 33 34 36 37 39 41 43 44 45 
 46 47 48 49 50 51 52 54 55 57 58 59 
 60 61 62 65 66 67 69 70 71 72 73 74 
 75 76 77 78 79 80 81 82 83 84 85 86 
 88 89 90 91 92 
 88 
 1 2 3 4 5 6 7 8 10 11 12 13 
 14 15 16 17 18 19 20 21 22 23 24 25 
 26 28 29 30 31 32 33 34 35 36 37 38 
 39 40 41 43 44 45 46 47 48 49 50 51 
 52 53 54 55 56 57 58 59 60 61 62 63 
 64 65 66 67 68 69 70 71 72 73 74 76 
 77 78 79 80 81 82 83 84 85 86 87 88 
 89 90 91 92 
 33 
 1 2 4 5 7 9 10 11 12 14 15 17 
 24 31 36 38 39 41 44 47 52 58 61 68 
 69 70 71 73 77 79 80 82 83 
 34 
 3 6 7 8 9 12 13 14 20 22 23 25 
 31 32 34 38 43 44 49 55 59 62 63 66 
 69 72 76 77 82 83 87 88 91 92 
 6 
 29 44 56 58 63 66 
 20 
 5 10 11 27 31 32 35 36 46 47 48 52 
 58 59 70 75 78 83 85 90 
 29 
 13 14 23 24 25 26 29 33 39 41 43 44 
 45 47 50 54 56 57 64 65 71 75 76 77 
 84 85 86 88 90 
 10 
 6 10 15 32 34 40 44 57 58 92 
 23 
 7 8 16 17 24 25 31 40 41 44 45 47 
 51 57 58 62 63 64 66 70 74 76 84 
 39 
 1 2 3 4 6 7 10 16 17 18 19 22 
 24 26 27 29 30 33 38 40 42 43 45 47 
 56 58 61 63 64 66 68 69 72 74 79 83 
 89 90 92 
 72 
 2 3 4 5 6 7 8 9 11 12 13 14 
 15 16 17 18 19 20 21 22 25 27 28 29 
 30 31 33 34 35 37 38 39 40 41 43 44 
 45 47 48 49 50 51 52 53 54 56 57 58 
 59 60 61 63 64 67 68 69 70 71 72 73 
 74 75 76 77 78 80 81 86 88 89 91 92 
 51 
 2 5 7 8 9 11 13 15 18 20 21 22 
 23 27 28 31 32 33 36 37 40 41 44 45 
 48 50 52 53 54 60 61 63 64 65 67 68 
 69 71 72 74 77 78 79 81 83 84 85 86 
 87 88 91 
 24 
 2 5 9 10 11 12 13 17 24 31 34 36 
 40 46 57 58 66 69 74 77 78 81 83 89 
 28 
 1 3 5 8 10 12 15 21 23 29 32 34 
 37 52 56 57 62 64 69 71 74 78 79 81 
 84 85 86 87 
 64 
 4 5 6 7 9 10 11 12 13 14 15 17 
 18 19 20 21 23 24 25 26 27 28 29 30 
 31 32 33 35 36 37 39 40 41 45 47 49 
 50 52 53 55 56 57 58 60 63 65 66 69 
 70 71 72 73 75 77 79 81 82 83 84 87 
 88 89 90 92 
 32 
 2 3 5 7 10 12 13 20 31 37 39 40 
 47 48 51 54 55 56 57 61 62 64 66 71 
 75 78 84 85 86 89 91 92 
 17 
 6 17 20 24 25 26 28 45 48 51 53 55 
 59 63 73 76 84 
 45 
 1 4 6 7 8 11 12 13 14 16 17 18 
 19 22 23 26 27 31 32 34 38 40 41 42 
 43 44 46 48 50 51 54 55 60 63 64 67 
 68 71 75 85 86 88 89 91 92 
 87 
 1 2 3 4 5 6 7 8 9 10 12 13 
 14 15 16 17 18 19 20 21 23 24 25 26 
 27 28 29 31 32 33 34 35 36 37 38 39 
 40 41 42 43 44 45 46 47 48 50 51 52 
 53 54 55 56 57 58 59 60 61 62 63 64 
 65 66 67 68 69 70 71 72 73 74 76 77 
 78 79 80 81 82 83 84 85 86 87 88 89 
 90 91 92 
 53 
 1 2 4 5 9 10 11 19 21 22 24 26 
 28 31 33 35 36 37 39 41 42 43 45 46 
 49 52 53 55 56 57 58 59 60 61 63 65 
 66 69 70 72 73 74 76 77 78 80 81 82 
 85 86 89 90 91 
 34 
 10 14 19 20 21 22 26 29 30 34 42 44 
 48 49 51 54 56 59 60 61 62 63 65 66 
 67 70 72 73 74 75 80 83 84 87 
 48 
 1 4 6 7 8 9 11 16 18 19 20 21 
 23 25 29 30 31 32 33 34 36 38 40 41 
 45 46 49 50 51 52 56 58 66 69 70 73 
 74 75 76 77 81 82 84 86 89 90 91 92 
 40 
 2 3 4 8 14 17 18 19 20 21 22 25 
 28 29 32 33 34 37 38 40 46 48 50 51 
 52 56 59 60 66 70 71 76 81 84 85 86 
 87 88 91 92 
 51 
 2 4 7 8 13 15 16 18 21 22 23 24 
 25 28 29 31 32 34 36 38 39 40 41 44 
 48 49 51 54 55 56 57 58 61 63 65 66 
 69 70 73 74 79 80 83 84 85 86 87 88 
 89 90 92 
 27 
 1 7 8 9 18 22 24 25 26 27 29 34 
 38 40 41 42 49 50 53 55 67 69 80 82 
 83 84 85 
 22 
 1 4 8 9 11 15 16 20 23 24 43 46 
 50 51 54 64 67 72 73 77 78 84 
 50 
 2 4 7 10 11 13 15 17 18 20 22 23 
 26 28 29 30 32 33 34 36 37 38 39 42 
 45 46 50 51 52 56 57 62 64 65 66 68 
 70 71 72 73 74 77 78 79 80 81 82 83 
 86 92 
 57 
 1 2 3 5 7 8 9 10 11 12 13 17 
 18 19 20 23 24 25 26 28 29 31 33 35 
 37 38 39 41 43 44 51 52 53 54 55 56 
 59 60 62 63 65 66 67 68 70 73 74 76 
 77 84 85 86 87 88 89 90 91 
 11 
 2 17 30 43 51 53 62 65 74 80 88 
 91 
 1 2 3 4 5 6 7 8 9 10 11 12 
 13 14 15 16 17 18 19 20 21 22 23 24 
 26 27 28 29 30 31 32 33 34 35 36 37 
 38 39 40 41 42 43 44 45 46 47 48 49 
 50 51 52 53 54 55 56 57 58 59 60 61 
 62 63 64 65 66 67 68 69 70 71 72 73 
 74 75 76 77 78 79 80 81 82 83 84 85 
 86 87 88 89 90 91 92 
 88 
 1 2 3 4 5 6 7 8 9 10 11 12 
 13 14 15 16 19 20 21 22 23 24 25 26 
 27 28 29 30 31 32 33 34 35 36 37 38 
 39 40 41 42 43 44 45 46 47 48 50 51 
 52 53 54 55 57 58 59 60 61 62 63 64 
 65 66 67 68 69 70 71 72 73 74 75 76 
 77 78 79 80 81 82 83 84 85 86 87 88 
 89 90 91 92 
 46 
 4 5 6 7 8 9 10 12 14 15 19 20 
 22 24 27 28 30 31 32 35 37 40 41 42 
 45 47 49 50 52 55 58 61 63 65 68 69 
 72 73 76 77 80 82 86 87 88 89 
 57 
 1 2 5 7 8 14 15 16 17 19 20 21 
 22 23 24 28 29 30 32 33 34 35 38 39 
 43 46 47 48 50 51 52 54 55 56 57 58 
 61 63 65 66 70 71 72 73 75 77 78 79 
 80 81 83 84 85 87 89 90 92 
 19 
 5 8 10 20 26 32 34 35 37 41 53 58 
 61 62 72 74 84 88 89 
 6 
 14 35 49 71 79 83 
 29 
 5 8 9 10 13 16 18 19 25 31 32 40 
 41 42 44 47 48 49 60 61 64 66 77 79 
 86 87 88 90 92 
 75 
 1 2 3 4 5 6 7 8 9 12 13 14 
 15 16 17 18 20 21 22 23 24 27 28 29 
 30 31 32 33 34 36 38 39 41 42 43 44 
 45 46 47 49 50 52 53 54 55 56 57 58 
 59 60 61 63 64 65 66 67 68 70 71 73 
 74 75 76 77 79 80 81 84 85 87 88 89 
 90 91 92 
 57 
 1 4 5 6 8 11 12 13 15 17 20 21 
 22 23 24 25 26 27 30 32 34 35 36 38 
 39 42 43 44 46 47 52 54 55 56 57 59 
 63 64 65 67 68 70 71 72 73 74 75 76 
 77 78 84 85 86 87 88 89 91 
 53 
 3 6 8 9 13 14 17 18 19 21 23 25 
 27 29 30 32 34 36 37 39 40 41 42 44 
 47 48 49 52 53 54 58 59 60 63 64 65 
 66 70 71 72 74 76 78 79 80 81 83 84 
 85 86 87 90 91 
 70 
 2 3 4 5 6 7 8 9 13 14 15 17 
 18 19 21 23 24 25 26 27 28 29 30 31 
 32 34 35 36 37 38 40 41 42 44 46 47 
 48 49 50 51 52 53 56 57 58 59 61 62 
 63 64 65 67 68 69 70 71 72 75 76 78 
 79 80 81 82 84 85 86 87 88 90 
 26 
 2 11 16 17 18 22 25 27 37 38 41 47 
 56 58 59 63 68 70 71 73 74 79 81 82 
 83 90 
 6 
 16 21 52 76 84 91 
 9 
 1 6 18 28 34 47 54 66 77 
 12 
 12 14 28 33 38 51 59 70 75 78 79 81 
 92 
 1 2 3 4 5 6 7 8 9 10 11 12 
 13 14 15 16 17 18 19 20 21 22 23 24 
 25 26 27 28 29 30 31 32 33 34 35 36 
 37 38 39 40 41 42 43 44 45 46 47 48 
 49 50 51 52 53 54 55 56 57 58 59 60 
 61 62 63 64 65 66 67 68 69 70 71 72 
 73 74 75 76 77 78 79 80 81 82 83 84 
 85 86 87 88 89 90 91 92 
 77 
 1 2 4 5 6 8 9 10 11 12 13 14 
 15 16 18 19 20 21 22 25 26 27 29 31 
 32 33 34 35 36 37 38 39 40 41 42 43 
 44 45 46 48 49 50 51 52 53 54 56 57 
 59 60 61 62 63 64 65 66 67 70 71 73 
 74 75 77 78 79 81 82 83 84 85 86 87 
 88 89 90 91 92 
 66 
 1 4 5 6 7 8 9 10 12 13 15 16 
 17 19 21 22 24 25 31 34 37 38 39 40 
 41 42 43 45 46 47 48 49 50 51 52 53 
 54 56 57 59 60 61 62 63 64 65 67 68 
 69 70 71 73 75 76 77 80 83 84 85 86 
 87 88 89 90 91 92 
 26 
 7 10 11 17 19 21 25 26 34 35 40 41 
 45 49 51 52 54 57 63 64 76 77 83 84 
 91 92 
 69 
 1 3 4 5 6 7 9 10 12 13 14 15 
 16 17 18 19 25 27 28 29 30 31 33 34 
 35 36 37 39 40 41 43 46 47 48 49 50 
 53 54 55 56 57 58 59 60 61 62 64 65 
 66 67 68 69 70 71 73 76 78 79 80 81 
 82 83 84 85 86 89 90 91 92 
 59 
 1 3 5 6 8 9 10 12 13 14 16 17 
 18 20 21 22 23 26 27 28 30 32 34 35 
 37 38 39 41 42 43 46 47 48 49 50 53 
 55 57 58 59 60 61 62 65 68 70 71 72 
 74 75 76 78 79 80 86 87 89 91 92 
 78 
 1 2 3 4 5 6 7 8 9 11 12 13 
 14 15 16 17 19 20 21 22 23 25 26 28 
 29 30 31 32 33 34 35 36 38 39 40 41 
 42 43 44 45 46 47 48 49 50 52 53 54 
 55 56 57 59 60 61 62 63 64 65 66 68 
 69 70 71 72 73 74 76 79 80 81 82 83 
 85 86 87 88 89 90 
 67 
 1 2 4 5 6 7 8 9 10 11 12 15 
 19 20 22 23 24 26 28 29 31 33 34 35 
 37 38 39 40 41 42 43 45 46 47 48 49 
 50 52 53 54 57 58 59 61 63 64 65 67 
 68 70 71 73 74 75 76 78 79 80 81 82 
 84 87 88 89 90 91 92 
 17 
 6 14 19 24 36 42 44 46 50 55 58 60 
 76 77 78 84 87 
 28 
 4 8 11 14 23 25 26 32 34 35 36 38 
 43 44 48 49 52 54 58 62 74 77 78 80 
 81 90 91 92 
 90 
 1 2 3 4 5 6 7 8 9 10 11 12 
 13 14 15 16 17 18 19 20 21 22 23 24 
 25 27 28 29 30 31 32 33 34 35 36 37 
 38 39 40 41 42 43 44 45 46 47 48 49 
 50 51 52 53 54 56 57 58 59 60 61 62 
 63 64 65 66 67 68 69 70 71 72 73 74 
 75 76 77 78 79 80 81 82 83 84 85 86 
 87 88 89 90 91 92 
 79 
 1 2 3 4 5 6 7 8 9 10 11 12 
 13 15 16 17 18 20 22 23 24 25 26 27 
 28 29 30 31 32 33 34 35 36 37 39 40 
 41 42 43 44 45 47 48 49 50 51 52 53 
 55 56 57 59 60 61 62 64 65 66 68 69 
 70 73 74 76 77 78 79 80 81 82 83 84 
 85 86 88 89 90 91 92 
 20 
 4 15 18 25 29 31 32 34 37 40 48 52 
 54 58 60 62 71 78 79 92 
 10 
 10 11 19 37 47 64 65 83 85 87 
 86 
 1 2 3 4 5 6 7 8 9 10 11 12 
 14 15 16 17 18 19 20 21 22 23 24 25 
 26 27 28 29 30 31 32 33 34 35 36 38 
 39 40 41 42 43 44 45 46 47 48 49 50 
 51 52 53 54 55 56 57 58 59 60 61 62 
 63 64 65 66 67 68 69 70 72 74 76 77 
 78 79 80 81 82 83 84 85 86 87 88 90 
 91 92 
 47 
 1 3 7 10 12 13 14 16 18 20 21 22 
 23 36 37 38 40 41 42 46 47 48 51 52 
 54 55 56 57 59 60 61 65 67 68 69 71 
 73 74 76 77 80 81 85 87 89 91 92 
 77 
 1 2 3 4 5 6 8 9 10 12 13 14 
 15 16 17 18 19 20 21 24 26 27 28 29 
 30 31 32 33 34 35 36 37 38 39 40 41 
 42 43 45 47 48 49 50 51 52 54 55 56 
 57 60 61 65 66 67 68 69 70 71 72 73 
 75 76 77 78 79 80 81 82 83 84 85 87 
 88 89 90 91 92 
 35 
 2 7 9 14 17 19 20 21 22 23 25 26 
 29 30 32 35 45 47 49 56 58 59 61 66 
 68 70 73 77 78 80 84 85 87 89 92 
 56 
 1 2 3 4 5 6 7 8 10 12 13 14 
 17 20 21 24 25 26 27 28 29 32 33 35 
 36 38 40 41 43 44 48 51 53 54 55 58 
 59 63 65 66 67 69 70 71 72 73 74 75 
 77 78 79 82 84 85 86 87 
 87 
 1 2 3 4 5 6 7 8 9 10 11 12 
 13 14 15 16 17 18 19 20 21 23 25 26 
 27 28 29 30 31 32 33 34 35 36 37 38 
 40 41 42 43 44 45 46 47 48 49 50 51 
 52 53 54 55 56 57 58 59 60 61 62 64 
 65 66 67 68 69 70 71 72 73 74 75 76 
 77 78 79 80 81 82 83 84 85 87 88 89 
 90 91 92 
 46 
 2 5 9 11 15 17 19 20 21 23 26 27 
 28 29 31 34 35 37 38 43 44 46 48 50 
 53 54 55 58 63 64 66 71 72 73 75 76 
 77 80 81 82 83 85 86 87 88 92 
 40 
 2 3 4 6 13 14 17 18 20 23 24 25 
 26 28 30 32 35 37 44 45 47 49 50 51 
 52 53 55 58 59 60 61 70 75 80 82 85 
 86 88 91 92 
 80 
 1 2 3 4 5 6 7 8 9 10 11 13 
 15 17 18 19 20 21 22 24 25 26 28 29 
 30 31 33 34 35 36 37 38 39 40 41 42 
 43 44 45 47 48 49 50 51 53 54 55 56 
 57 58 59 60 61 62 63 64 65 66 67 69 
 70 71 72 73 74 75 76 78 80 81 83 84 
 85 86 87 88 89 90 91 92 
 59 
 1 2 4 5 6 8 10 11 12 13 14 15 
 16 19 20 21 24 25 27 30 31 32 34 36 
 37 39 40 42 43 44 45 46 47 52 53 54 
 55 56 57 58 63 65 66 67 68 69 70 73 
 74 75 78 79 80 81 87 89 90 91 92 
 42 
 1 5 7 9 10 12 14 19 21 23 25 26 
 28 30 31 32 33 35 42 44 46 48 49 50 
 52 53 54 56 58 61 62 66 68 69 72 75 
 78 79 81 84 85 92 
 71 
 1 3 4 5 8 9 10 12 13 17 18 19 
 20 21 22 24 25 26 27 28 30 31 32 33 
 35 36 37 38 39 42 43 44 45 46 49 50 
 51 52 53 54 55 56 57 58 61 63 64 65 
 66 67 68 70 71 72 73 74 75 76 77 78 
 79 80 81 82 84 86 87 88 89 90 92 
 29 
 2 5 9 11 13 16 20 29 30 35 40 41 
 42 43 50 51 52 56 58 66 69 70 72 74 
 77 79 80 81 89 
 38 
 1 2 3 6 8 9 10 12 14 15 18 19 
 26 28 29 30 32 35 36 37 38 40 43 46 
 47 55 57 59 61 63 70 74 75 76 77 83 
 87 90 
 56 
 3 5 7 8 15 17 20 21 22 23 24 25 
 28 30 31 32 34 35 36 37 42 46 50 51 
 53 54 55 56 57 58 59 60 61 62 63 64 
 65 67 68 69 70 72 73 77 78 79 80 81 
 82 83 84 85 88 89 90 91 
 29 
 7 9 10 14 15 16 20 21 22 26 27 31 
 33 40 42 47 50 54 55 57 59 66 69 73 
 75 78 79 83 92 
 74 
 1 3 4 5 7 8 9 10 11 13 14 15 
 16 17 18 19 20 21 22 23 25 26 27 29 
 30 31 32 36 37 39 40 41 42 43 44 45 
 46 48 49 50 51 52 53 54 56 57 58 59 
 60 61 62 63 64 65 66 67 68 69 72 73 
 74 75 77 78 79 80 81 83 86 87 88 90 
 91 92 
 26 
 2 5 9 10 15 17 19 21 23 24 39 40 
 41 48 51 53 58 66 68 70 71 76 78 84 
 87 88 
 86 
 1 2 3 4 5 6 7 8 9 10 11 12 
 13 14 15 16 17 18 19 20 21 22 24 25 
 26 27 28 29 30 31 32 33 34 35 36 37 
 38 39 40 41 42 43 45 46 47 48 49 50 
 51 52 53 54 55 56 57 58 59 60 61 62 
 63 64 65 66 67 68 69 71 72 73 74 75 
 77 78 81 82 83 84 85 86 87 88 89 90 
 91 92 
 28 
 3 9 14 15 19 21 26 37 38 39 41 42 
 45 48 49 51 53 58 59 60 61 64 66 68 
 72 88 91 92 
 37 
 4 6 8 9 10 13 18 22 23 28 31 34 
 38 41 42 43 45 49 51 55 56 59 62 63 
 64 65 66 69 70 71 73 75 78 80 81 83 
 88 
 90 
 1 2 3 4 5 6 7 8 9 10 11 12 
 13 14 15 16 17 18 19 20 21 23 24 25 
 26 27 28 29 30 31 32 33 34 35 36 37 
 38 39 40 41 42 43 44 45 46 47 48 49 
 50 51 52 53 54 56 57 58 59 60 61 62 
 63 64 65 66 67 68 69 70 71 72 73 74 
 75 76 77 78 79 80 81 82 83 84 85 86 
 87 88 89 90 91 92 
 34 
 2 4 9 10 14 24 25 26 27 35 36 37 
 38 40 44 45 53 54 56 58 63 65 66 70 
 73 75 76 77 78 84 85 86 87 92 
 76 
 1 2 3 4 5 7 8 9 10 11 12 13 
 14 15 18 20 22 23 24 25 26 27 28 29 
 31 32 33 34 35 36 37 38 39 40 41 42 
 43 44 45 46 47 48 49 50 51 52 53 55 
 57 58 59 60 61 62 63 64 65 67 68 69 
 70 72 74 77 78 80 81 82 84 85 86 87 
 89 90 91 92 
 17 
 3 5 8 11 18 19 25 32 33 43 60 71 
 72 77 82 84 86 
 85 
 1 2 3 4 5 6 7 8 9 10 11 12 
 13 14 15 16 17 18 19 20 21 23 24 25 
 26 28 30 31 32 33 34 35 36 37 38 39 
 40 41 42 43 44 45 47 49 50 51 52 53 
 54 55 56 57 58 59 60 61 62 63 64 65 
 66 67 68 69 70 71 72 74 75 76 77 78 
 79 80 81 83 84 85 86 87 88 89 90 91 
 92 
 54 
 1 2 4 5 10 12 13 15 16 17 20 22 
 25 26 29 32 33 34 36 37 38 40 43 44 
 45 46 47 48 49 50 52 53 54 56 57 58 
 62 65 67 68 69 71 72 74 75 76 77 79 
 81 85 86 87 89 90 
 